(set-info :smt-lib-version 2.6)
(set-logic QF_UF)
(set-info :source |
Generated by: Aman Goel (amangoel@umich.edu), Karem A. Sakallah (karem@umich.edu)
Generated on: 2018-04-06

Generated by the tool Averroes 2 (successor of [1]) which implements safety property
verification on hardware systems.

This SMT problem belongs to a set of SMT problems generated by applying Averroes 2
to benchmarks derived from [2-5].

A total of 412 systems (345 from [2], 19 from [3], 26 from [4], 22 from [5]) were
syntactically converted from their original formats (using [6, 7]), and given to 
Averroes 2 to perform property checking with abstraction (wide bit-vectors -> terms, 
wide operators -> UF) using SMT solvers [8, 9].

[1] Lee S., Sakallah K.A. (2014) Unbounded Scalable Verification Based on Approximate
Property-Directed Reachability and Datapath Abstraction. In: Biere A., Bloem R. (eds)
Computer Aided Verification. CAV 2014. Lecture Notes in Computer Science, vol 8559.
Springer, Cham
[2] http://fmv.jku.at/aiger/index.html#beem
[3] http://www.cs.cmu.edu/~modelcheck/vcegar
[4] http://www.cprover.org/hardware/v2c
[5] http://github.com/aman-goel/verilogbench
[6] http://www.clifford.at/yosys
[7] http://github.com/chengyinwu/V3
[8] http://github.com/Z3Prover/z3
[9] http://github.com/SRI-CSL/yices2

id: v_Unidec
query-maker: "Yices 2"
query-time: 2.143000 ms
query-class: abstract
query-category: oneshot
query-type: cti
status: sat
|)
(set-info :license "https://creativecommons.org/licenses/by/4.0/")
(set-info :category "industrial")

;
(set-info :status sat)
(declare-sort utt$2 0)
(declare-sort utt$3 0)
(declare-sort utt$4 0)
(declare-sort utt$6 0)
(declare-sort utt$7 0)
(declare-sort utt$9 0)
(declare-sort utt$10 0)
(declare-sort utt$12 0)
(declare-sort utt$13 0)
(declare-sort utt$16 0)
(declare-sort utt$20 0)
(declare-sort utt$23 0)
(declare-sort utt$26 0)
(declare-sort utt$29 0)
(declare-sort utt$31 0)
(declare-sort utt$32 0)
(declare-fun Concat_16_10_6 (utt$10 utt$6 ) utt$16)
(declare-fun Concat_16_12_4 (utt$12 utt$4 ) utt$16)
(declare-fun Concat_16_13_3 (utt$13 utt$3 ) utt$16)
(declare-fun Concat_16_3_13 (utt$3 utt$13 ) utt$16)
(declare-fun Concat_16_4_12 (utt$4 utt$12 ) utt$16)
(declare-fun Concat_16_6_10 (utt$6 utt$10 ) utt$16)
(declare-fun Concat_16_7_9 (utt$7 utt$9 ) utt$16)
(declare-fun Concat_16_9_7 (utt$9 utt$7 ) utt$16)
(declare-fun Concat_32_12_20 (utt$12 utt$20 ) utt$32)
(declare-fun Concat_32_1_31 (Bool utt$31 ) utt$32)
(declare-fun Concat_32_3_29 (utt$3 utt$29 ) utt$32)
(declare-fun Concat_32_6_26 (utt$6 utt$26 ) utt$32)
(declare-fun Concat_32_9_23 (utt$9 utt$23 ) utt$32)
(declare-fun Extract_10_15_6_16 (utt$16 ) utt$10)
(declare-fun Extract_12_11_0_16 (utt$16 ) utt$12)
(declare-fun Extract_12_15_4_16 (utt$16 ) utt$12)
(declare-fun Extract_13_15_3_16 (utt$16 ) utt$13)
(declare-fun Extract_3_15_13_16 (utt$16 ) utt$3)
(declare-fun Extract_3_2_0_16 (utt$16 ) utt$3)
(declare-fun Extract_4_15_12_16 (utt$16 ) utt$4)
(declare-fun Extract_6_15_10_16 (utt$16 ) utt$6)
(declare-fun Extract_6_5_0_16 (utt$16 ) utt$6)
(declare-fun Extract_7_15_9_16 (utt$16 ) utt$7)
(declare-fun Extract_9_15_7_16 (utt$16 ) utt$9)
(declare-fun Extract_9_8_0_16 (utt$16 ) utt$9)
(declare-fun y$1 () Bool)
(declare-fun y$104 () Bool)
(declare-fun y$105 () utt$6)
(declare-fun y$11 () Bool)
(declare-fun y$115 () Bool)
(declare-fun y$116 () utt$12)
(declare-fun y$121 () Bool)
(declare-fun y$122 () utt$3)
(declare-fun y$13 () Bool)
(declare-fun y$135 () Bool)
(declare-fun y$136 () utt$4)
(declare-fun y$141 () utt$7)
(declare-fun y$148 () utt$10)
(declare-fun y$15 () Bool)
(declare-fun y$153 () utt$13)
(declare-fun y$164 () utt$3)
(declare-fun y$169 () utt$3)
(declare-fun y$17 () Bool)
(declare-fun y$173 () utt$3)
(declare-fun y$174 () utt$3)
(declare-fun y$179 () utt$3)
(declare-fun y$182 () utt$3)
(declare-fun y$183 () utt$3)
(declare-fun y$184 () utt$3)
(declare-fun y$188 () Bool)
(declare-fun y$189 () utt$12)
(declare-fun y$196 () utt$12)
(declare-fun y$202 () utt$12)
(declare-fun y$203 () utt$12)
(declare-fun y$210 () utt$12)
(declare-fun y$214 () utt$12)
(declare-fun y$215 () utt$12)
(declare-fun y$216 () utt$12)
(declare-fun y$226 () utt$6)
(declare-fun y$232 () utt$6)
(declare-fun y$236 () utt$6)
(declare-fun y$237 () utt$6)
(declare-fun y$242 () utt$6)
(declare-fun y$245 () utt$6)
(declare-fun y$246 () utt$6)
(declare-fun y$247 () utt$6)
(declare-fun y$251 () Bool)
(declare-fun y$252 () utt$9)
(declare-fun y$259 () utt$9)
(declare-fun y$265 () utt$9)
(declare-fun y$266 () utt$9)
(declare-fun y$273 () utt$9)
(declare-fun y$277 () utt$9)
(declare-fun y$278 () utt$9)
(declare-fun y$279 () utt$9)
(declare-fun y$291 () utt$9)
(declare-fun y$297 () utt$9)
(declare-fun y$303 () utt$9)
(declare-fun y$304 () utt$9)
(declare-fun y$309 () utt$9)
(declare-fun y$312 () utt$9)
(declare-fun y$313 () utt$9)
(declare-fun y$314 () utt$9)
(declare-fun y$318 () Bool)
(declare-fun y$319 () utt$6)
(declare-fun y$32 () Bool)
(declare-fun y$326 () utt$6)
(declare-fun y$332 () utt$6)
(declare-fun y$333 () utt$6)
(declare-fun y$339 () utt$6)
(declare-fun y$34 () Bool)
(declare-fun y$343 () utt$6)
(declare-fun y$344 () utt$6)
(declare-fun y$345 () utt$6)
(declare-fun y$355 () utt$12)
(declare-fun y$361 () utt$12)
(declare-fun y$367 () utt$12)
(declare-fun y$368 () utt$12)
(declare-fun y$375 () utt$12)
(declare-fun y$378 () utt$12)
(declare-fun y$379 () utt$12)
(declare-fun y$380 () utt$12)
(declare-fun y$384 () Bool)
(declare-fun y$385 () utt$3)
(declare-fun y$390 () utt$3)
(declare-fun y$394 () utt$3)
(declare-fun y$395 () utt$3)
(declare-fun y$402 () utt$3)
(declare-fun y$403 () utt$3)
(declare-fun y$404 () utt$3)
(declare-fun y$42 () Bool)
(declare-fun y$420 () Bool)
(declare-fun y$421 () utt$4)
(declare-fun y$428 () utt$4)
(declare-fun y$432 () utt$4)
(declare-fun y$433 () utt$4)
(declare-fun y$438 () utt$4)
(declare-fun y$441 () utt$4)
(declare-fun y$442 () utt$4)
(declare-fun y$443 () utt$4)
(declare-fun y$447 () utt$7)
(declare-fun y$454 () utt$7)
(declare-fun y$458 () utt$7)
(declare-fun y$459 () utt$7)
(declare-fun y$464 () utt$7)
(declare-fun y$467 () utt$7)
(declare-fun y$468 () utt$7)
(declare-fun y$469 () utt$7)
(declare-fun y$475 () utt$10)
(declare-fun y$482 () utt$10)
(declare-fun y$488 () utt$10)
(declare-fun y$489 () utt$10)
(declare-fun y$494 () utt$10)
(declare-fun y$497 () utt$10)
(declare-fun y$498 () utt$10)
(declare-fun y$499 () utt$10)
(declare-fun y$5 () Bool)
(declare-fun y$50 () Bool)
(declare-fun y$503 () utt$13)
(declare-fun y$509 () utt$13)
(declare-fun y$515 () utt$13)
(declare-fun y$516 () utt$13)
(declare-fun y$523 () utt$13)
(declare-fun y$526 () utt$13)
(declare-fun y$527 () utt$13)
(declare-fun y$528 () utt$13)
(declare-fun y$53 () Bool)
(declare-fun y$546 () Bool)
(declare-fun y$548 () Bool)
(declare-fun y$549 () Bool)
(declare-fun y$554 () Bool)
(declare-fun y$555 () Bool)
(declare-fun y$564 () Bool)
(declare-fun y$565 () Bool)
(declare-fun y$568 () Bool)
(declare-fun y$569 () Bool)
(declare-fun y$57 () Bool)
(declare-fun y$570 () Bool)
(declare-fun y$572 () Bool)
(declare-fun y$578 () Bool)
(declare-fun y$579 () Bool)
(declare-fun y$580 () Bool)
(declare-fun y$581 () Bool)
(declare-fun y$582 () Bool)
(declare-fun y$583 () Bool)
(declare-fun y$59 () Bool)
(declare-fun y$591 () Bool)
(declare-fun y$592 () Bool)
(declare-fun y$593 () Bool)
(declare-fun y$594 () Bool)
(declare-fun y$595 () Bool)
(declare-fun y$62 () utt$3)
(declare-fun y$68 () Bool)
(declare-fun y$70 () utt$12)
(declare-fun y$8 () Bool)
(declare-fun y$80 () utt$6)
(declare-fun y$85 () Bool)
(declare-fun y$86 () utt$9)
(declare-fun y$98 () Bool)
(declare-fun y$99 () utt$9)
(declare-fun y$found () Bool)
(declare-fun y$found$next () Bool)
(declare-fun y$found$next_rhs () Bool)
(declare-fun y$found$next_rhs_op () Bool)
(declare-fun y$init () Bool)
(declare-fun y$init$next () Bool)
(declare-fun y$n0s10 () utt$10)
(declare-fun y$n0s12 () utt$12)
(declare-fun y$n0s16 () utt$16)
(declare-fun y$n0s2 () utt$2)
(declare-fun y$n0s20 () utt$20)
(declare-fun y$n0s23 () utt$23)
(declare-fun y$n0s26 () utt$26)
(declare-fun y$n0s29 () utt$29)
(declare-fun y$n0s3 () utt$3)
(declare-fun y$n0s31 () utt$31)
(declare-fun y$n0s32 () utt$32)
(declare-fun y$n0s4 () utt$4)
(declare-fun y$n0s6 () utt$6)
(declare-fun y$n0s7 () utt$7)
(declare-fun y$n0s9 () utt$9)
(declare-fun y$n10s12 () utt$12)
(declare-fun y$n10s16 () utt$16)
(declare-fun y$n10s6 () utt$6)
(declare-fun y$n10s9 () utt$9)
(declare-fun y$n11s10 () utt$10)
(declare-fun y$n11s13 () utt$13)
(declare-fun y$n12s4 () utt$4)
(declare-fun y$n137s9 () utt$9)
(declare-fun y$n1673s12 () utt$12)
(declare-fun y$n193s9 () utt$9)
(declare-fun y$n1s10 () utt$10)
(declare-fun y$n1s13 () utt$13)
(declare-fun y$n1s2 () utt$2)
(declare-fun y$n1s3 () utt$3)
(declare-fun y$n1s4 () utt$4)
(declare-fun y$n1s6 () utt$6)
(declare-fun y$n1s7 () utt$7)
(declare-fun y$n24s6 () utt$6)
(declare-fun y$n2s2 () utt$2)
(declare-fun y$n2s3 () utt$3)
(declare-fun y$n3176s12 () utt$12)
(declare-fun y$n32767s16 () utt$16)
(declare-fun y$n35s6 () utt$6)
(declare-fun y$n36s12 () utt$12)
(declare-fun y$n38s12 () utt$12)
(declare-fun y$n397s9 () utt$9)
(declare-fun y$n3s2 () utt$2)
(declare-fun y$n3s3 () utt$3)
(declare-fun y$n44s12 () utt$12)
(declare-fun y$n49s6 () utt$6)
(declare-fun y$n4s3 () utt$3)
(declare-fun y$n4s9 () utt$9)
(declare-fun y$n50825s16 () utt$16)
(declare-fun y$n584s12 () utt$12)
(declare-fun y$n584s16 () utt$16)
(declare-fun y$n5s12 () utt$12)
(declare-fun y$n5s3 () utt$3)
(declare-fun y$n5s9 () utt$9)
(declare-fun y$n611s12 () utt$12)
(declare-fun y$n611s16 () utt$16)
(declare-fun y$n6353s13 () utt$13)
(declare-fun y$n6s3 () utt$3)
(declare-fun y$n705s12 () utt$12)
(declare-fun y$n705s16 () utt$16)
(declare-fun y$n72s9 () utt$9)
(declare-fun y$n73s13 () utt$13)
(declare-fun y$n76s13 () utt$13)
(declare-fun y$n794s10 () utt$10)
(declare-fun y$n7s3 () utt$3)
(declare-fun y$n88s12 () utt$12)
(declare-fun y$n88s13 () utt$13)
(declare-fun y$n88s16 () utt$16)
(declare-fun y$n88s9 () utt$9)
(declare-fun y$n8s12 () utt$12)
(declare-fun y$n8s16 () utt$16)
(declare-fun y$n8s6 () utt$6)
(declare-fun y$n8s9 () utt$9)
(declare-fun y$n99s7 () utt$7)
(declare-fun y$n99s9 () utt$9)
(declare-fun y$n9s10 () utt$10)
(declare-fun y$n9s6 () utt$6)
(declare-fun y$other () utt$16)
(declare-fun y$other_op () utt$16)
(declare-fun y$prop () Bool)
(declare-fun y$prop$next () Bool)
(declare-fun y$s$0 () utt$16)
(declare-fun y$s$0_op () utt$16)
(declare-fun y$s$10 () utt$16)
(declare-fun y$s$10_op () utt$16)
(declare-fun y$s$11 () utt$16)
(declare-fun y$s$11_op () utt$16)
(declare-fun y$s$12 () utt$16)
(declare-fun y$s$12_op () utt$16)
(declare-fun y$s$13 () utt$16)
(declare-fun y$s$13_op () utt$16)
(declare-fun y$s$14 () utt$16)
(declare-fun y$s$14_op () utt$16)
(declare-fun y$s$15 () Bool)
(declare-fun y$s$15_op () Bool)
(declare-fun y$s$19 () Bool)
(declare-fun y$s$19_op () Bool)
(declare-fun y$s$20 () Bool)
(declare-fun y$s$20_op () Bool)
(declare-fun y$s$21 () Bool)
(declare-fun y$s$21_op () Bool)
(declare-fun y$s$22 () utt$16)
(declare-fun y$s$22_op () utt$16)
(declare-fun y$s$23 () utt$16)
(declare-fun y$s$23_op () utt$16)
(declare-fun y$s$24 () utt$16)
(declare-fun y$s$24_op () utt$16)
(declare-fun y$s$25 () utt$16)
(declare-fun y$s$25_op () utt$16)
(declare-fun y$s$26 () utt$16)
(declare-fun y$s$26_op () utt$16)
(declare-fun y$s$27 () utt$16)
(declare-fun y$s$27_op () utt$16)
(declare-fun y$s$28 () utt$16)
(declare-fun y$s$28_op () utt$16)
(declare-fun y$s$29 () utt$16)
(declare-fun y$s$29_op () utt$16)
(declare-fun y$s$3 () utt$16)
(declare-fun y$s$30 () utt$16)
(declare-fun y$s$30_op () utt$16)
(declare-fun y$s$31 () utt$16)
(declare-fun y$s$31_op () utt$16)
(declare-fun y$s$32 () utt$16)
(declare-fun y$s$32_op () utt$16)
(declare-fun y$s$33 () utt$16)
(declare-fun y$s$33_op () utt$16)
(declare-fun y$s$34 () utt$16)
(declare-fun y$s$34_op () utt$16)
(declare-fun y$s$35 () utt$16)
(declare-fun y$s$35_op () utt$16)
(declare-fun y$s$36 () utt$16)
(declare-fun y$s$36_op () utt$16)
(declare-fun y$s$37 () utt$16)
(declare-fun y$s$37_op () utt$16)
(declare-fun y$s$38 () utt$16)
(declare-fun y$s$38_op () utt$16)
(declare-fun y$s$3_op () utt$16)
(declare-fun y$s$4 () utt$16)
(declare-fun y$s$4_op () utt$16)
(declare-fun y$s$5 () utt$16)
(declare-fun y$s$51 () utt$16)
(declare-fun y$s$51_op () utt$16)
(declare-fun y$s$52 () utt$16)
(declare-fun y$s$52_op () utt$16)
(declare-fun y$s$54 () utt$16)
(declare-fun y$s$54_op () utt$16)
(declare-fun y$s$55 () utt$16)
(declare-fun y$s$55_op () utt$16)
(declare-fun y$s$57 () utt$16)
(declare-fun y$s$57_op () utt$16)
(declare-fun y$s$58 () utt$16)
(declare-fun y$s$58_op () utt$16)
(declare-fun y$s$5_op () utt$16)
(declare-fun y$s$6 () utt$16)
(declare-fun y$s$60 () utt$16)
(declare-fun y$s$60_op () utt$16)
(declare-fun y$s$61 () utt$16)
(declare-fun y$s$61_op () utt$16)
(declare-fun y$s$69 () utt$16)
(declare-fun y$s$69_op () utt$16)
(declare-fun y$s$6_op () utt$16)
(declare-fun y$s$7 () utt$16)
(declare-fun y$s$71 () utt$16)
(declare-fun y$s$71_op () utt$16)
(declare-fun y$s$73 () utt$16)
(declare-fun y$s$73_op () utt$16)
(declare-fun y$s$75 () utt$16)
(declare-fun y$s$75_op () utt$16)
(declare-fun y$s$7_op () utt$16)
(declare-fun y$s$8 () utt$16)
(declare-fun y$s$8_op () utt$16)
(declare-fun y$s$9 () utt$16)
(declare-fun y$s$90 () utt$16)
(declare-fun y$s$90_op () utt$16)
(declare-fun y$s$91 () utt$16)
(declare-fun y$s$91_op () utt$16)
(declare-fun y$s$9_op () utt$16)
(declare-fun y$sel1 () utt$3)
(declare-fun y$sel2 () utt$2)
(declare-fun y$w$1 () utt$3)
(declare-fun y$w$10 () utt$32)
(declare-fun y$w$10_op () utt$32)
(declare-fun y$w$11 () utt$6)
(declare-fun y$w$12 () utt$16)
(declare-fun y$w$12_op () utt$16)
(declare-fun y$w$13 () utt$12)
(declare-fun y$w$14 () utt$32)
(declare-fun y$w$14_op () utt$32)
(declare-fun y$w$15 () utt$3)
(declare-fun y$w$16 () utt$16)
(declare-fun y$w$16_op () utt$16)
(declare-fun y$w$17 () utt$4)
(declare-fun y$w$18 () utt$16)
(declare-fun y$w$18_op () utt$16)
(declare-fun y$w$19 () utt$7)
(declare-fun y$w$2 () utt$32)
(declare-fun y$w$20 () utt$16)
(declare-fun y$w$20_op () utt$16)
(declare-fun y$w$21 () utt$10)
(declare-fun y$w$22 () utt$16)
(declare-fun y$w$22_op () utt$16)
(declare-fun y$w$23 () utt$13)
(declare-fun y$w$24 () utt$16)
(declare-fun y$w$24_op () utt$16)
(declare-fun y$w$25 () utt$32)
(declare-fun y$w$25$next () utt$32)
(declare-fun y$w$25$next_op () utt$32)
(declare-fun y$w$25_op () utt$32)
(declare-fun y$w$26 () utt$3)
(declare-fun y$w$27 () utt$32)
(declare-fun y$w$27_op () utt$32)
(declare-fun y$w$28 () utt$12)
(declare-fun y$w$29 () utt$16)
(declare-fun y$w$29_op () utt$16)
(declare-fun y$w$2_op () utt$32)
(declare-fun y$w$3 () utt$12)
(declare-fun y$w$30 () utt$6)
(declare-fun y$w$31 () utt$32)
(declare-fun y$w$31_op () utt$32)
(declare-fun y$w$32 () utt$9)
(declare-fun y$w$33 () utt$16)
(declare-fun y$w$33_op () utt$16)
(declare-fun y$w$34 () utt$9)
(declare-fun y$w$35 () utt$32)
(declare-fun y$w$35_op () utt$32)
(declare-fun y$w$36 () utt$6)
(declare-fun y$w$37 () utt$16)
(declare-fun y$w$37_op () utt$16)
(declare-fun y$w$38 () utt$12)
(declare-fun y$w$39 () utt$32)
(declare-fun y$w$39_op () utt$32)
(declare-fun y$w$4 () utt$16)
(declare-fun y$w$40 () utt$3)
(declare-fun y$w$41 () utt$16)
(declare-fun y$w$41_op () utt$16)
(declare-fun y$w$42 () utt$4)
(declare-fun y$w$43 () utt$16)
(declare-fun y$w$43_op () utt$16)
(declare-fun y$w$44 () utt$7)
(declare-fun y$w$45 () utt$16)
(declare-fun y$w$45_op () utt$16)
(declare-fun y$w$46 () utt$10)
(declare-fun y$w$47 () utt$16)
(declare-fun y$w$47_op () utt$16)
(declare-fun y$w$48 () utt$13)
(declare-fun y$w$49 () utt$16)
(declare-fun y$w$49_op () utt$16)
(declare-fun y$w$4_op () utt$16)
(declare-fun y$w$5 () utt$6)
(declare-fun y$w$6 () utt$32)
(declare-fun y$w$6_op () utt$32)
(declare-fun y$w$7 () utt$9)
(declare-fun y$w$8 () utt$16)
(declare-fun y$w$8_op () utt$16)
(declare-fun y$w$9 () utt$9)
(declare-fun y$word () utt$16)
(declare-fun y$word$next () utt$16)
(declare-fun y$word$next_rhs () utt$16)
(declare-fun y$word$next_rhs_op () utt$16)
(assert (distinct y$n2s2 y$n3s2 y$n1s2 y$n0s2))
(assert (distinct y$n4s3 y$n5s3 y$n6s3 y$n7s3 y$n2s3 y$n3s3 y$n1s3 y$n0s3))
(assert (distinct y$n1s4 y$n0s4 y$n12s4))
(assert (distinct y$n0s6 y$n49s6 y$n8s6 y$n9s6 y$n35s6 y$n1s6 y$n24s6 y$n10s6))
(assert (distinct y$n1s7 y$n0s7 y$n99s7))
(assert (distinct y$n0s9 y$n8s9 y$n137s9 y$n99s9 y$n193s9 y$n72s9 y$n88s9 y$n10s9 y$n397s9 y$n4s9 y$n5s9))
(assert (distinct y$n1s10 y$n0s10 y$n794s10 y$n9s10 y$n11s10))
(assert (distinct y$n0s12 y$n8s12 y$n1673s12 y$n611s12 y$n705s12 y$n584s12 y$n88s12 y$n10s12 y$n3176s12 y$n38s12 y$n44s12 y$n36s12 y$n5s12))
(assert (distinct y$n1s13 y$n6353s13 y$n76s13 y$n88s13 y$n73s13 y$n11s13))
(assert (distinct y$n8s16 y$n50825s16 y$n611s16 y$n705s16 y$n584s16 y$n88s16 y$n10s16 y$n32767s16 y$n0s16))
(assert (= y$w$25_op (Concat_32_1_31 y$found y$n0s31)))
(assert (= y$554 (= y$w$25_op y$n0s32)))
(assert (= y$555 (= y$prop y$554)))
(assert (= y$init (not y$8)))
(assert (= y$11 (= y$n4s3 y$sel1)))
(assert (= y$13 (= y$n5s3 y$sel1)))
(assert (= y$15 (= y$n6s3 y$sel1)))
(assert (= y$17 (= y$n7s3 y$sel1)))
(assert (= y$s$19_op (or y$15 y$17)))
(assert (= y$s$15_op (or y$11 y$13 y$s$19_op)))
(assert (= y$s$30_op (ite y$17 y$n8s16 y$n50825s16)))
(assert (= y$s$31_op (ite y$13 y$n611s16 y$n705s16)))
(assert (= y$s$32_op (ite y$s$19_op y$s$30_op y$s$31_op)))
(assert (= y$32 (= y$n2s3 y$sel1)))
(assert (= y$34 (= y$n3s3 y$sel1)))
(assert (= y$s$20_op (or y$32 y$34)))
(assert (= y$s$33_op (ite y$34 y$n584s16 y$n88s16)))
(assert (= y$42 (= y$n1s3 y$sel1)))
(assert (= y$s$34_op (ite y$42 y$n10s16 y$n8s16)))
(assert (= y$s$35_op (ite y$s$20_op y$s$33_op y$s$34_op)))
(assert (= y$other_op (ite y$s$15_op y$s$32_op y$s$35_op)))
(assert (= y$50 (= y$word y$other_op)))
(assert (= y$found$next_rhs_op (and y$8 y$50)))
(assert (= y$53 (= y$found$next y$found$next_rhs_op)))
(assert (= y$57 (= y$n2s2 y$sel2)))
(assert (= y$59 (= y$n3s2 y$sel2)))
(assert (= y$s$21_op (or y$57 y$59)))
(assert (= y$62 (Extract_3_15_13_16 y$word)))
(assert (= y$w$27_op (Concat_32_3_29 y$62 y$n0s29)))
(assert (= y$68 (= y$n0s32 y$w$27_op)))
(assert (= y$70 (Extract_12_11_0_16 y$word)))
(assert (= y$w$29_op (Concat_16_12_4 y$70 y$n1s4)))
(assert (= y$s$69_op (ite y$68 y$n32767s16 y$w$29_op)))
(assert (= y$s$12_op (ite y$59 y$s$69_op y$n0s16)))
(assert (= y$80 (Extract_6_15_10_16 y$word)))
(assert (= y$w$31_op (Concat_32_6_26 y$80 y$n0s26)))
(assert (= y$85 (= y$n0s32 y$w$31_op)))
(assert (= y$86 (Extract_9_8_0_16 y$word)))
(assert (= y$w$33_op (Concat_16_9_7 y$86 y$n1s7)))
(assert (= y$s$71_op (ite y$85 y$n32767s16 y$w$33_op)))
(assert (= y$s$10_op (ite y$57 y$s$71_op y$n0s16)))
(assert (= y$s$28_op (ite y$59 y$s$12_op y$s$10_op)))
(assert (= y$98 (= y$n1s2 y$sel2)))
(assert (= y$99 (Extract_9_15_7_16 y$word)))
(assert (= y$w$35_op (Concat_32_9_23 y$99 y$n0s23)))
(assert (= y$104 (= y$n0s32 y$w$35_op)))
(assert (= y$105 (Extract_6_5_0_16 y$word)))
(assert (= y$w$37_op (Concat_16_6_10 y$105 y$n1s10)))
(assert (= y$s$73_op (ite y$104 y$n32767s16 y$w$37_op)))
(assert (= y$s$7_op (ite y$98 y$s$73_op y$n0s16)))
(assert (= y$115 (= y$n0s2 y$sel2)))
(assert (= y$116 (Extract_12_15_4_16 y$word)))
(assert (= y$w$39_op (Concat_32_12_20 y$116 y$n0s20)))
(assert (= y$121 (= y$n0s32 y$w$39_op)))
(assert (= y$122 (Extract_3_2_0_16 y$word)))
(assert (= y$w$41_op (Concat_16_3_13 y$122 y$n1s13)))
(assert (= y$s$75_op (ite y$121 y$n32767s16 y$w$41_op)))
(assert (= y$s$3_op (ite y$115 y$s$75_op y$n0s16)))
(assert (= y$s$29_op (ite y$98 y$s$7_op y$s$3_op)))
(assert (= y$s$0_op (ite y$s$21_op y$s$28_op y$s$29_op)))
(assert (= y$135 (= y$other_op y$s$0_op)))
(assert (= y$136 (Extract_4_15_12_16 y$word)))
(assert (= y$w$43_op (Concat_16_4_12 y$136 y$n0s12)))
(assert (= y$141 (Extract_7_15_9_16 y$word)))
(assert (= y$w$45_op (Concat_16_7_9 y$141 y$n0s9)))
(assert (= y$s$25_op (ite y$59 y$w$43_op y$w$45_op)))
(assert (= y$148 (Extract_10_15_6_16 y$word)))
(assert (= y$w$47_op (Concat_16_10_6 y$148 y$n0s6)))
(assert (= y$153 (Extract_13_15_3_16 y$word)))
(assert (= y$w$49_op (Concat_16_13_3 y$153 y$n0s3)))
(assert (= y$s$26_op (ite y$98 y$w$47_op y$w$49_op)))
(assert (= y$s$27_op (ite y$s$21_op y$s$25_op y$s$26_op)))
(assert (= y$s$5_op (ite y$135 y$s$27_op y$n0s16)))
(assert (= y$169 (ite y$17 y$n0s3 y$n6s3)))
(assert (= y$n0s3 y$173))
(assert (= y$174 (ite y$s$19_op y$169 y$173)))
(assert (= y$n0s3 y$179))
(assert (= y$n0s3 y$182))
(assert (= y$183 (ite y$s$20_op y$179 y$182)))
(assert (= y$184 (ite y$s$15_op y$174 y$183)))
(assert (= y$164 (Extract_3_15_13_16 y$other_op)))
(assert (= y$184 y$164))
(assert (= y$w$2_op (Concat_32_3_29 y$164 y$n0s29)))
(assert (= y$188 (= y$n0s32 y$w$2_op)))
(assert (= y$196 (ite y$17 y$n8s12 y$n1673s12)))
(assert (= y$202 (ite y$13 y$n611s12 y$n705s12)))
(assert (= y$203 (ite y$s$19_op y$196 y$202)))
(assert (= y$210 (ite y$34 y$n584s12 y$n88s12)))
(assert (= y$214 (ite y$42 y$n10s12 y$n8s12)))
(assert (= y$215 (ite y$s$20_op y$210 y$214)))
(assert (= y$216 (ite y$s$15_op y$203 y$215)))
(assert (= y$189 (Extract_12_11_0_16 y$other_op)))
(assert (= y$216 y$189))
(assert (= y$w$4_op (Concat_16_12_4 y$189 y$n1s4)))
(assert (= y$s$51_op (ite y$188 y$n32767s16 y$w$4_op)))
(assert (= y$s$52_op (ite y$59 y$s$51_op y$n0s16)))
(assert (= y$s$14_op (ite y$135 y$n0s16 y$s$52_op)))
(assert (= y$232 (ite y$17 y$n0s6 y$n49s6)))
(assert (= y$n0s6 y$236))
(assert (= y$237 (ite y$s$19_op y$232 y$236)))
(assert (= y$n0s6 y$242))
(assert (= y$n0s6 y$245))
(assert (= y$246 (ite y$s$20_op y$242 y$245)))
(assert (= y$247 (ite y$s$15_op y$237 y$246)))
(assert (= y$226 (Extract_6_15_10_16 y$other_op)))
(assert (= y$247 y$226))
(assert (= y$w$6_op (Concat_32_6_26 y$226 y$n0s26)))
(assert (= y$251 (= y$n0s32 y$w$6_op)))
(assert (= y$259 (ite y$17 y$n8s9 y$n137s9)))
(assert (= y$265 (ite y$13 y$n99s9 y$n193s9)))
(assert (= y$266 (ite y$s$19_op y$259 y$265)))
(assert (= y$273 (ite y$34 y$n72s9 y$n88s9)))
(assert (= y$277 (ite y$42 y$n10s9 y$n8s9)))
(assert (= y$278 (ite y$s$20_op y$273 y$277)))
(assert (= y$279 (ite y$s$15_op y$266 y$278)))
(assert (= y$252 (Extract_9_8_0_16 y$other_op)))
(assert (= y$279 y$252))
(assert (= y$w$8_op (Concat_16_9_7 y$252 y$n1s7)))
(assert (= y$s$54_op (ite y$251 y$n32767s16 y$w$8_op)))
(assert (= y$s$55_op (ite y$57 y$s$54_op y$n0s16)))
(assert (= y$s$13_op (ite y$135 y$n0s16 y$s$55_op)))
(assert (= y$s$22_op (ite y$59 y$s$14_op y$s$13_op)))
(assert (= y$297 (ite y$17 y$n0s9 y$n397s9)))
(assert (= y$303 (ite y$13 y$n4s9 y$n5s9)))
(assert (= y$304 (ite y$s$19_op y$297 y$303)))
(assert (= y$309 (ite y$34 y$n4s9 y$n0s9)))
(assert (= y$n0s9 y$312))
(assert (= y$313 (ite y$s$20_op y$309 y$312)))
(assert (= y$314 (ite y$s$15_op y$304 y$313)))
(assert (= y$291 (Extract_9_15_7_16 y$other_op)))
(assert (= y$314 y$291))
(assert (= y$w$10_op (Concat_32_9_23 y$291 y$n0s23)))
(assert (= y$318 (= y$n0s32 y$w$10_op)))
(assert (= y$326 (ite y$17 y$n8s6 y$n9s6)))
(assert (= y$332 (ite y$13 y$n35s6 y$n1s6)))
(assert (= y$333 (ite y$s$19_op y$326 y$332)))
(assert (= y$339 (ite y$34 y$n8s6 y$n24s6)))
(assert (= y$343 (ite y$42 y$n10s6 y$n8s6)))
(assert (= y$344 (ite y$s$20_op y$339 y$343)))
(assert (= y$345 (ite y$s$15_op y$333 y$344)))
(assert (= y$319 (Extract_6_5_0_16 y$other_op)))
(assert (= y$345 y$319))
(assert (= y$w$12_op (Concat_16_6_10 y$319 y$n1s10)))
(assert (= y$s$57_op (ite y$318 y$n32767s16 y$w$12_op)))
(assert (= y$s$58_op (ite y$98 y$s$57_op y$n0s16)))
(assert (= y$s$11_op (ite y$135 y$n0s16 y$s$58_op)))
(assert (= y$361 (ite y$17 y$n0s12 y$n3176s12)))
(assert (= y$367 (ite y$13 y$n38s12 y$n44s12)))
(assert (= y$368 (ite y$s$19_op y$361 y$367)))
(assert (= y$375 (ite y$34 y$n36s12 y$n5s12)))
(assert (= y$n0s12 y$378))
(assert (= y$379 (ite y$s$20_op y$375 y$378)))
(assert (= y$380 (ite y$s$15_op y$368 y$379)))
(assert (= y$355 (Extract_12_15_4_16 y$other_op)))
(assert (= y$380 y$355))
(assert (= y$w$14_op (Concat_32_12_20 y$355 y$n0s20)))
(assert (= y$384 (= y$n0s32 y$w$14_op)))
(assert (= y$390 (ite y$17 y$n0s3 y$n1s3)))
(assert (= y$394 (ite y$13 y$n3s3 y$n1s3)))
(assert (= y$395 (ite y$s$19_op y$390 y$394)))
(assert (= y$402 (ite y$42 y$n2s3 y$n0s3)))
(assert (= y$403 (ite y$s$20_op y$179 y$402)))
(assert (= y$404 (ite y$s$15_op y$395 y$403)))
(assert (= y$385 (Extract_3_2_0_16 y$other_op)))
(assert (= y$404 y$385))
(assert (= y$w$16_op (Concat_16_3_13 y$385 y$n1s13)))
(assert (= y$s$60_op (ite y$384 y$n32767s16 y$w$16_op)))
(assert (= y$s$61_op (ite y$115 y$s$60_op y$n0s16)))
(assert (= y$s$8_op (ite y$135 y$n0s16 y$s$61_op)))
(assert (= y$s$23_op (ite y$98 y$s$11_op y$s$8_op)))
(assert (= y$s$24_op (ite y$s$21_op y$s$22_op y$s$23_op)))
(assert (= y$s$4_op (ite y$135 y$n0s16 y$s$24_op)))
(assert (= y$420 (= y$word y$s$4_op)))
(assert (= y$428 (ite y$17 y$n0s4 y$n12s4)))
(assert (= y$n0s4 y$432))
(assert (= y$433 (ite y$s$19_op y$428 y$432)))
(assert (= y$n0s4 y$438))
(assert (= y$n0s4 y$441))
(assert (= y$442 (ite y$s$20_op y$438 y$441)))
(assert (= y$443 (ite y$s$15_op y$433 y$442)))
(assert (= y$421 (Extract_4_15_12_16 y$other_op)))
(assert (= y$443 y$421))
(assert (= y$w$18_op (Concat_16_4_12 y$421 y$n0s12)))
(assert (= y$454 (ite y$17 y$n0s7 y$n99s7)))
(assert (= y$n1s7 y$458))
(assert (= y$459 (ite y$s$19_op y$454 y$458)))
(assert (= y$464 (ite y$34 y$n1s7 y$n0s7)))
(assert (= y$n0s7 y$467))
(assert (= y$468 (ite y$s$20_op y$464 y$467)))
(assert (= y$469 (ite y$s$15_op y$459 y$468)))
(assert (= y$447 (Extract_7_15_9_16 y$other_op)))
(assert (= y$469 y$447))
(assert (= y$w$20_op (Concat_16_7_9 y$447 y$n0s9)))
(assert (= y$s$36_op (ite y$59 y$w$18_op y$w$20_op)))
(assert (= y$482 (ite y$17 y$n0s10 y$n794s10)))
(assert (= y$488 (ite y$13 y$n9s10 y$n11s10)))
(assert (= y$489 (ite y$s$19_op y$482 y$488)))
(assert (= y$494 (ite y$34 y$n9s10 y$n1s10)))
(assert (= y$n0s10 y$497))
(assert (= y$498 (ite y$s$20_op y$494 y$497)))
(assert (= y$499 (ite y$s$15_op y$489 y$498)))
(assert (= y$475 (Extract_10_15_6_16 y$other_op)))
(assert (= y$499 y$475))
(assert (= y$w$22_op (Concat_16_10_6 y$475 y$n0s6)))
(assert (= y$509 (ite y$17 y$n1s13 y$n6353s13)))
(assert (= y$515 (ite y$13 y$n76s13 y$n88s13)))
(assert (= y$516 (ite y$s$19_op y$509 y$515)))
(assert (= y$523 (ite y$34 y$n73s13 y$n11s13)))
(assert (= y$n1s13 y$526))
(assert (= y$527 (ite y$s$20_op y$523 y$526)))
(assert (= y$528 (ite y$s$15_op y$516 y$527)))
(assert (= y$503 (Extract_13_15_3_16 y$other_op)))
(assert (= y$528 y$503))
(assert (= y$w$24_op (Concat_16_13_3 y$503 y$n0s3)))
(assert (= y$s$37_op (ite y$98 y$w$22_op y$w$24_op)))
(assert (= y$s$38_op (ite y$s$21_op y$s$36_op y$s$37_op)))
(assert (= y$s$90_op (ite y$420 y$s$38_op y$n0s16)))
(assert (= y$s$9_op (ite y$135 y$n0s16 y$s$90_op)))
(assert (= y$s$91_op (ite y$420 y$s$9_op y$n0s16)))
(assert (= y$s$6_op (ite y$135 y$n0s16 y$s$91_op)))
(assert (= y$word$next_rhs_op (ite y$135 y$s$5_op y$s$6_op)))
(assert (= y$546 (= y$word$next y$word$next_rhs_op)))
(assert (= y$init$next (not y$548)))
(assert (= y$549 (and y$53 y$546 y$548)))
(assert (= y$w$25$next_op (Concat_32_1_31 y$found$next y$n0s31)))
(assert (= (= y$n0s32 y$w$25$next_op) y$568))
(assert (= y$569 (= y$prop$next y$568)))
(assert (= y$prop$next (not y$565)))
(assert (= y$found$next (not y$579)))
(assert (= y$580 (not (= y$n0s32 y$w$25$next_op))))
(assert (= y$581 (and y$579 y$580)))
(assert (= y$581 (not y$583)))
(assert (= y$found (not y$1)))
(assert (= (not (= y$w$25_op y$n0s32)) y$572))
(assert (= y$578 (and y$1 y$572)))
(assert (= y$578 (not y$582)))
(assert (= y$593 (and y$prop y$555 y$583 y$582 y$549 y$569 y$565)))
(assert y$593)
(assert (distinct y$n2s2 y$n3s2 y$n1s2 y$n0s2))
(assert (distinct y$n4s3 y$n5s3 y$n6s3 y$n7s3 y$n2s3 y$n3s3 y$n1s3 y$n0s3))
(assert (distinct y$n1s4 y$n0s4 y$n12s4))
(assert (distinct y$n0s6 y$n49s6 y$n8s6 y$n9s6 y$n35s6 y$n1s6 y$n24s6 y$n10s6))
(assert (distinct y$n1s7 y$n0s7 y$n99s7))
(assert (distinct y$n0s9 y$n8s9 y$n137s9 y$n99s9 y$n193s9 y$n72s9 y$n88s9 y$n10s9 y$n397s9 y$n4s9 y$n5s9))
(assert (distinct y$n1s10 y$n0s10 y$n794s10 y$n9s10 y$n11s10))
(assert (distinct y$n0s12 y$n8s12 y$n1673s12 y$n611s12 y$n705s12 y$n584s12 y$n88s12 y$n10s12 y$n3176s12 y$n38s12 y$n44s12 y$n36s12 y$n5s12))
(assert (distinct y$n1s13 y$n6353s13 y$n76s13 y$n88s13 y$n73s13 y$n11s13))
(assert (distinct y$n8s16 y$n50825s16 y$n611s16 y$n705s16 y$n584s16 y$n88s16 y$n10s16 y$n32767s16 y$n0s16))
(check-sat)
(exit)
